fichier avec gurobi/rna2.lp
Maximize
	P(1,2) + P(1,3) + P(1,4) + P(1,5) + P(2,3) + P(2,4) + P(2,5) + P(3,4) + P(3,5) + P(4,5)

Subject To
P(1,2) = 0
P(1,4) = 0
P(1,5) = 0
P(2,3) = 0 
P(3,4) = 0
P(3,5) = 0
P(4,5) = 0

P(1,2) + P(1,3) + P(1,4) + P(1,5) <= 1
P(1,2) + P(2,3) + P(2,4) + P(2,5) <= 1 
P(1,3) + P(2,3) + P(3,4) + P(3,5) <= 1
P(1,4) + P(2,4) + P(3,4) + P(4,5) <= 1
P(1,5) + P(3,5) + P(2,5) + P(4,5) <= 1

P(1,3) + P(2,4) <= 1
P(1,3) + P(2,5) <= 1
P(1,4) + P(2,5) <= 1
P(1,4) + P(3,5) <= 1 
P(2,4) + P(3,5) <= 1

Integers
	P(1,2) P(1,3) P(1,4) P(1,5) P(2,3) P(2,4) P(2,5) P(3,4) P(3,5) P(4,5)

End