fichier avec gurobi/rna2.sol
# Objective value = 1
P(1,2) 0
P(1,3) 1
P(1,4) 0
P(1,5) 0
P(2,3) 0
P(2,4) 0
P(2,5) 0
P(3,4) 0
P(3,5) 0
P(4,5) 0
